language Essence 1.3

$ consecutive mesh param file
letting length be 5

$ mesh_containment = permutation + mesh pieces
letting mesh_containment be {(sequence(1,4,3,2), relation((1, 0), (1, 1), (1, 2), (1, 3), (2, 0), (2, 1), (2, 2), (2, 3), (3, 0), (3, 1), (3, 2), (3, 3), (4, 2), (0, 1)) )}
